************************************************************************
file with basedata            : md225_.bas
initial value random generator: 1867394602
************************************************************************
projects                      :  1
jobs (incl. supersource/sink ):  18
horizon                       :  126
RESOURCES
  - renewable                 :  2   R
  - nonrenewable              :  2   N
  - doubly constrained        :  0   D
************************************************************************
PROJECT INFORMATION:
pronr.  #jobs rel.date duedate tardcost  MPM-Time
    1     16      0       25       14       25
************************************************************************
PRECEDENCE RELATIONS:
jobnr.    #modes  #successors   successors
   1        1          3           2   3   4
   2        3          3           5  12  17
   3        3          3           6   7  16
   4        3          3           7   8   9
   5        3          1           8
   6        3          2          15  17
   7        3          2          11  14
   8        3          2          10  13
   9        3          3          10  11  12
  10        3          2          14  16
  11        3          2          15  17
  12        3          1          13
  13        3          2          14  16
  14        3          1          15
  15        3          1          18
  16        3          1          18
  17        3          1          18
  18        1          0        
************************************************************************
REQUESTS/DURATIONS:
jobnr. mode duration  R 1  R 2  N 1  N 2
------------------------------------------------------------------------
  1      1     0       0    0    0    0
  2      1     5       0    6    9    5
         2     5       7    0    5    6
         3     8       0    5    2    4
  3      1     4       9    0    9    5
         2     6       0    5    9    4
         3     8       0    4    9    2
  4      1     4       4    0    8    8
         2     8       0    5    5    8
         3    10       2    0    3    8
  5      1     2       0    5   10    1
         2     6       7    0    8    1
         3     9       1    0    6    1
  6      1     8       0    6    2    2
         2     8       9    0    2    2
         3    10       7    0    1    2
  7      1     1       7    0    9    8
         2     4       7    0    8    5
         3     5       4    0    8    2
  8      1     7       0   10    9    5
         2     7       8    0    9    5
         3    10       0   10    8    5
  9      1     1       4    0    5   10
         2     4       3    0    4    9
         3     7       0    6    3    9
 10      1     5       0    9    9    6
         2     7       5    0    8    6
         3     7       0    7    7    6
 11      1     5       0    2    3    5
         2     6       2    0    2    5
         3     7       2    0    2    4
 12      1     2       4    0    9   10
         2     3       0    7    8    9
         3     9       0    3    8    6
 13      1     2       3    0   10    9
         2     7       2    0    9    9
         3    10       0    6    8    9
 14      1     3       0   10    7    9
         2     9       0   10    7    7
         3    10       0   10    6    6
 15      1     3      10    0    4    7
         2     4       0    9    3    7
         3     4       8    0    3    7
 16      1     1       0    6    7    2
         2     1       0    8    6    2
         3     2       8    0    6    2
 17      1     2       8    0    7    5
         2     4       0    8    6    4
         3    10       6    0    3    2
 18      1     0       0    0    0    0
************************************************************************
RESOURCEAVAILABILITIES:
  R 1  R 2  N 1  N 2
   10   13   92   81
************************************************************************
